s td 72 10 81
b 1 1 2 10
b 2 8 9 18
b 3 64 73 74
b 4 72 80 81
b 5 2 3 10 11
b 6 7 8 17 18
b 7 3 4 12 22 32 40 50 60 70 80
b 8 4 12 22 32 40 42 50 60 70 80
b 9 4 12 22 32 42 50 52 60 70 80
b 10 4 12 22 32 42 52 60 62 70 80
b 11 4 12 22 32 42 52 62 63 70 80
b 12 4 12 14 22 32 42 52 62 63
b 13 4 14 22 24 32 42 52 62 63
b 14 4 14 24 32 34 42 52 62 63
b 15 4 14 24 34 42 44 52 62 63
b 16 4 14 24 34 36 44 52 62 63
b 17 4 6 14 24 34 36 44
b 18 4 5 6 14
b 19 6 14 16 24 34 36 44
b 20 6 16 24 26 34 36 44
b 21 6 16 18 26 36
b 22 6 16 17 18 26
b 23 6 7 16 17 18
b 24 18 26 27 36
b 25 16 24 25 26 34
b 26 26 34 35 36 44
b 27 6 14 15 16 24
b 28 36 44 52 53 62 63
b 29 36 44 45 53 63
b 30 45 53 54 63
b 31 34 42 43 44 52
b 32 24 32 33 34 42
b 33 14 22 23 24 32
b 34 4 12 13 14 22
b 35 62 63 70 71 80
b 36 52 60 61 62 70
b 37 42 50 51 52 60
b 38 32 40 41 42 50
b 39 3 12 22 30 32 40 50 60 70 80
b 40 3 12 20 22 30 40 50 60 70 80
b 41 3 12 20 28 30 40 50 60 70 80
b 42 3 10 12 20 28
b 43 3 10 11 12 20
b 44 10 19 20 28
b 45 20 28 30 38 40 50 60 70 80
b 46 20 28 29 30 38
b 47 28 30 38 40 48 50 60 70 80
b 48 28 38 40 48 50 58 60 70 80
b 49 28 38 48 50 58 60 70 78 80
b 50 28 38 48 50 58 60 68 70 78
b 51 28 38 48 58 68 76 78
b 52 28 38 46 48 58 68 76
b 53 28 37 38 46
b 54 38 46 48 56 58 68 76
b 55 38 46 47 48 56
b 56 46 48 56 58 66 68 76
b 57 46 56 66 74 76
b 58 46 56 65 66 74
b 59 46 55 56 65 74
b 60 66 74 75 76
b 61 48 56 57 58 66
b 62 58 66 67 68 76
b 63 68 76 77 78
b 64 50 58 59 60 68
b 65 60 68 69 70 78
b 66 70 78 79 80
b 67 40 48 49 50 58
b 68 30 38 39 40 48
b 69 12 20 21 22 30
b 70 22 30 31 32 40
b 71 55 64 65 74
b 72 63 71 72 80
1 5
2 6
3 71
4 72
5 43
6 23
7 8
7 39
8 9
8 38
9 10
9 37
10 11
10 36
11 12
11 35
12 13
12 34
13 14
13 33
14 15
14 32
15 16
15 31
16 17
16 28
17 18
17 19
19 20
19 27
20 21
20 25
20 26
21 22
21 24
22 23
28 29
29 30
35 72
39 40
39 70
40 41
40 69
41 42
41 45
42 43
42 44
45 46
45 47
47 48
47 68
48 49
48 67
49 50
49 66
50 51
50 64
50 65
51 52
51 63
52 53
52 54
54 55
54 56
56 57
56 61
56 62
57 58
57 60
58 59
59 71
